30
XYZ file generated by Avogadro.
C     -3.33264    1.99550   -0.02685
C     -2.44714    0.98066    0.06162
C     -2.71604   -0.47898    0.18066
C     -3.30756    4.69769   -0.34306
C     -2.05792    1.92332   -2.08243
C     -1.09323    1.52498    0.02057
C      0.14072    0.69314    0.08307
C     -4.82028    1.94779   -0.07679
C     -1.15627    2.86414   -0.10308
C     -2.59756    3.31659   -0.13031
C     -0.02257    3.82237   -0.20985
H     -0.37020    4.80788   -0.53612
H      0.47085    3.94117    0.75991
H      0.71393    3.48122   -0.94345
H     -0.04086   -0.34453   -0.21092
H      0.91292    1.07911   -0.59125
H      0.54228    0.69101    1.10138
H     -3.78436   -0.70398    0.24465
H     -2.32226   -1.01331   -0.68939
H     -2.24600   -0.88670    1.08206
H     -5.20634    0.92685   -0.12500
H     -5.24792    2.42304    0.81075
H     -5.18644    2.47726   -0.96307
H     -4.31237    4.80070   -0.76700
H     -3.38027    4.87266    0.73664
H     -2.69095    5.49564   -0.77019
C     -2.21029    1.38906   -3.62833
H     -2.02531    0.33636   -3.67832
H     -1.45137    1.91081   -4.17305
H     -3.16746    1.60369   -4.05571
